155 32 7 117 195 150 103 111 174 74 77 59 
120 139 161 21 69 31 181 183 97 45 
46 188 28 137 178 159 189 60 24 113 
73 145 191 151 37 39 101 154 83 198 108 
87 185 8 25 180 172 148 52 90 173 
196 30 2 121 34 104 129 14 81 105 65 
192 123 1 171 128 13 27 49 61 
132 57 114 141 72 109 79 126 112 10 110 
55 67 135 89 95 138 22 58 47 127 99 149 
158 51 143 19 152 17 187 78 122 164 
106 85 54 38 62 84 9 50 130 11 80 
140 20 194 176 165 124 118 96 70 56 147 
157 3 68 133 64 160 182 91 146 
4 15 184 100 163 98 136 23 29 43 190 186 
93 199 131 33 167 179 107 197 75 
153 12 134 82 119 53 
63 18 35 162 76 169 102 
44 166 193 175 156 42 
168 92 16 6 88 40 
41 36 5 66 142 200 
26 86 170 
115 48 177 
94 125 144 
71 116 

